NAME : morphed18-5-9
COMMENT : Generated using the function morphInstances from the R-package netgen (Bossek,2015) - Number of clusters: 5 Alpha: 0.5
TYPE : TSP
DIMENSION : 18
EDGE_WEIGHT_TYPE : EUC_2D
NODE_COORD_SECTION
1 16.7008988193 35.7913520795
2 3.0958846185 46.1860035731
3 29.8605796433 67.5461235626
4 21.2574443645 3.8274848263
5 42.7825436242 31.7395503556
6 20.4387928665 13.8516725052
7 39.4265755534 48.0024842272
8 57.6808396381 87.9786820458
9 58.5656238741 41.4776256764
10 95.1670168165 58.6162366369
11 24.153109141 72.5917208131
12 4.6901119435 60.3599984158
13 89.0289484773 46.7261096265
14 51.3571366301 94.3793654215
15 45.7333200361 42.8658374518
16 61.2812596114 88.4103622867
17 34.1307213134 2.8083422664
18 98.6864546699 88.2778397104
EOF
